p cnf 7230 16
3088 3089 0
2420 -3089 0
-2420 -3088 0
3086 3087 0
2418 -3087 0
-2418 -3086 0
3084 3085 0
2416 -3085 0
-2416 -3084 0
3082 3083 0
2414 -3083 0
-2414 -3082 0
-2422 3091 0
2422 -3091 0
3080 3081 0
-3080 -3081 0
